 
######################################################################
data_GdFeO3
_gsas_GSASII_version  5806

# phase info for GdFeO3 follows
_pd_phase_name  GdFeO3
_cell_length_a  5.3472(4)
_cell_length_b  5.6101(5)
_cell_length_c  7.6711(5)
_cell_angle_alpha  90
_cell_angle_beta   90
_cell_angle_gamma  90
_cell_volume  230.120(19)
_exptl_crystal_density_diffrn  7.5362
_symmetry_cell_setting  orthorhombic
_space_group_name_H-M_alt  "P b n m"
_space_group_name_Hall  "-P 2c 2ab"
loop_
    _space_group_symop_id
    _space_group_symop_operation_xyz
     1  x,y,z
     2  1/2-x,1/2+y,z
     3  1/2+x,1/2-y,1/2+z
     4  -x,-y,1/2+z
     5  -x,-y,-z
     6  1/2+x,1/2-y,-z
     7  1/2-x,1/2+y,1/2-z
     8  x,y,1/2-z

# ATOMIC COORDINATES AND DISPLACEMENT PARAMETERS
loop_ 
   _atom_site_label
   _atom_site_type_symbol
   _atom_site_fract_x
   _atom_site_fract_y
   _atom_site_fract_z
   _atom_site_occupancy
   _atom_site_adp_type
   _atom_site_U_iso_or_equiv
   _atom_site_site_symmetry_multiplicity
Gd1    Gd3+ -0.01537    0.06255     0.25000     1.0000     Uani 0.0000     4   
Fe1    Fe3+ 0.00000     0.50000     0.50000     1.0000     Uani 0.0000     4   
O1     O2-  0.09960     0.46770     0.25000     1.0000     Uani 0.0000     4   
O2     O2-  0.69560     0.30120     0.05280     1.0000     Uani 0.0000     8   

loop_
   _atom_site_aniso_label
   _atom_site_aniso_U_11
   _atom_site_aniso_U_22
   _atom_site_aniso_U_33
   _atom_site_aniso_U_12
   _atom_site_aniso_U_13
   _atom_site_aniso_U_23
Gd1    0.0000      0.0000      0.0000      0.0000      0.0000      0.0000      
Fe1    0.0000      0.0000      0.0000      0.0000      0.0000      0.0000      
O1     0.0000      0.0000      0.0000      0.0000      0.0000      0.0000      
O2     0.0000      0.0000      0.0000      0.0000      0.0000      0.0000      

loop_  _atom_type_symbol _atom_type_number_in_cell
  Fe+3    4
  Gd+3    4
  O-2     12

# Note that Z affects _cell_formula_sum and _weight
_cell_formula_units_Z  4
_chemical_formula_sum  "Fe Gd O3"
_chemical_formula_weight  261.09
